43017
49,48,50,100,95,96,97,98,88,94,93,92,85,84,86,87,89,91,90,81,82,80,79,83,78,77,76,75,74,68,67,66,65,62,63,64,73,72,71,70,69,30,51,52,55,54,57,58,59,61,60,56,53,34,36,35,33,31,32,15,14,16,3,1,2,5,4,8,6,7,13,12,10,9,17,18,11,19,21,20,26,27,28,29,137,142,24,23,22,25,144,143,140,139,138,132,126,125,133,134,136,135,170,171,173,175,186,184,141,185,145,187,188,190,151,150,149,148,147,146,154,155,153,152,197,192,191,198,199,200,201,202,195,196,194,193,182,183,179,181,180,178,177,189,176,174,172,165,164,169,163,159,158,160,161,166,162,157,156,102,117,168,167,116,115,114,101,113,122,121,119,112,99,111,110,109,108,107,106,103,105,104,118,39,123,120,124,131,130,129,128,127,37,38,40,41,42,43,44,45,47,46,49
